30
13
7 8 22 19 2 28 18 5 27 16 13 11 20 0 17 25 14 1 15
25 8 10 4 24 0 17 19 28 23 2 22
26 14 10 11 5 28 21 15 1 12 6 8 22 25 23 7 27 19 2 17 0 18 16 13 3
2 13 22 3 15 0 25 6 26
1 3 2 29 14 5 26 10 15 27 19 28
8 2 21 22 26 20 6 23 9 28 25 7 0 24 10 18 29 19 4 13 17
25 19 7 27 9 1 21 22 4 17 3
3 17 23 10 1 12 19 7 18 21 25 5 6 22 13 8 20 15 14 0 16 24 9 26 11 27 29
20 15 29 3 8 28 5 13 1 26 21 17 9 27 24 16 2 10 19 23
1 6 26 24 3 9 20 18 14 19 7 11 29 17 15 16
17 1 20
26 6 15 29 4 20 22 24 18 11 13 17 8 27 9 16 19 23 5 25
12 19 14 15 6 23 29 2 1 7 11 26 28 13 18 24 20 25 17 8 9 22 0 4
